120
150
52
83
63
25
21
38
67
28
56
83
37
62
31
23
21
72
34
72
72
25
67
21
37
66
90
42
69
59
22
76
74
24
40
22
42
22
25
20
72
60
56
34
52
38
60
75
75
55
75
42
42
90
59
37
37
42
34
57
93
38
45
67
52
83
21
42
90
60
43
25
31
23
34
48
67
48
23
79
72
52
83
67
63
86
24
47
79
82
63
81
25
44
69
83
67
72
28
86
63
60
90
72
37
37
96
47
80
23
42
95
72
90
75
75
98
52
90
90
98
52
